 &bands
    prefix='MoS2',
    outdir='/home/nevensky/hdd2tb/tmp'
    filband='MoS2.band'
    lsym=.true.,
 /
