 &control
    calculation 	= 'nscf'
    restart_mode	= 'from_scratch'
    prefix		= 'MoS2'
    tstress 		= .false.
    tprnfor 		= .true.
    pseudo_dir 		= '../PSEUDO',
    outdir		= '/home/nevensky/hdd2tb/tmp'
    wf_collect		= .true.
 /
 &system
    ibrav=  4, celldm(1)=5.9715347, celldm(3) =5, nat=  3, ntyp= 2,
    ecutwfc =50.0, nbnd=60, noinv=.true.
/
&ELECTRONS
    diagonalization='david'
    mixing_mode = 'plain'
    mixing_beta = 0.7
    conv_thr =  1.0d-6
/
ATOMIC_SPECIES
S  32.06   S.pz-hgh.UPF
Mo 95.95   Mo.pz-hgh.UPF
ATOMIC_POSITIONS 
Mo 0.00000 0.000000  0.00000000 
S  0.50000 0.288675 -0.49831139
S  0.50000 0.288675  0.49831139
K_POINTS automatic
201 201 1 0 0 0
