 &control
    calculation 	= 'scf'
    restart_mode	= 'from_scratch'
    prefix		= 'MoS2'
    tstress 		= .false.
    tprnfor 		= .true.
    pseudo_dir 		= '/home/vito/PROJECTS/MoS2-BSE/MoS2_51x51/PSEUDO',
    outdir		= './'
    wf_collect		= .true.
    verbosity           = 'high' 
 /
 &system
    ibrav=  4, celldm(1)=5.9715347, celldm(3) =5, nat=  3, ntyp= 2,
    ecutwfc =50.0,
    occupations = 'smearing',
    smearing='gaussian'
    degauss = 1.0d-2
    noinv=.true.
/
&ELECTRONS
    diagonalization='david'
    mixing_mode = 'plain'
    mixing_beta = 0.7
    conv_thr =  1.0d-6
/
ATOMIC_SPECIES
S  32.06   S.pz-hgh.UPF
Mo 95.95   Mo.pz-hgh.UPF
ATOMIC_POSITIONS 
Mo 0.00000 0.000000  0.00000000 
S  0.50000 0.288675 -0.49831139
S  0.50000 0.288675  0.49831139
K_POINTS automatic
12 12 1 0 0 0

